(set-info :smt-lib-version 2.7)
(set-logic ALL)
(set-info :source |
Generated on: 2026-06-22
Generator: pog2smtlib-2.7 github.com/CLEARSY/pog2smtlib-2.7 (-l HO_ALL -rpX)
Application: Discharging a proof obligation generated by aTelierB from an anonymized B machine
Target solver: CVC5 (--mbqi --enum-inst)
Time limit: 1200.0
|)
(set-info :license "www.gnu.org/licenses/gpl-3.0.en.html")
(set-info :category "industrial")
(set-info :status unknown)

(define-sort |Z| () Int)
(declare-sort P 1)
(define-sort |BOOL| () Bool)
(define-sort |POW Z| () (P |Z|))
(define-sort |POW BOOL| () (P |BOOL|))
(declare-datatype |s147| ((s148)(s149)(s150)(s151)))
(define-const MININT |Z| (- 2147483648))
(define-const MAXINT |Z| 2147483647)
(declare-fun |set.in Z| (|Z| |POW Z|) Bool)
(declare-fun |set.in BOOL| (|BOOL| |POW BOOL|) Bool)
(declare-const s903$1 |Z|)
(declare-const s908$1 |Z|)
(declare-const s630 |Z|)
(declare-const s890 |s147|)
(declare-const s900$1 |Z|)
(declare-const s429 |POW Z|)
(declare-const s907$1 |Z|)
(declare-const s906 |BOOL|)
(declare-const s897$1 |Z|)
(declare-const s898$1 |Z|)
(declare-const s910$1 |Z|)
(declare-const s899$1 |Z|)
(declare-const s917 |BOOL|)
(declare-const s902$2 |Z|)
(declare-const s909$1 |Z|)
(declare-const s893 |BOOL|)
(declare-const s899 |Z|)
(declare-const s466 |POW BOOL|)
(declare-const s892 |BOOL|)
(declare-const s923 |Z|)
(declare-const s913 |Z|)
(declare-const s919 |Z|)
(declare-const s431 |POW Z|)
(declare-const s670 |POW Z|)
(declare-const s895 |BOOL|)
(declare-const s914 |Z|)
(declare-const s915 |s147|)
(declare-const s896 |BOOL|)
(declare-const s916 |s147|)
(declare-const s904$1 |Z|)
(declare-const s918 |Z|)
(declare-const s904 |Z|)
(declare-const s889 |s147|)
(declare-const s901$1 |Z|)
(declare-const s897 |Z|)
(declare-const s912 |Z|)
(declare-const s669 |POW Z|)
(declare-const s902$1 |Z|)
(declare-const s885 |BOOL|)
(declare-const s900 |Z|)
(declare-const s887 |BOOL|)
(declare-const s902 |Z|)
(declare-const s905$1 |BOOL|)
(declare-const s906$1 |BOOL|)
(declare-const s886 |BOOL|)
(declare-const s903 |Z|)
(declare-const s898 |Z|)
(declare-const s901 |Z|)
(declare-const s888 |BOOL|)
(declare-const s894 |BOOL|)
(declare-const s905 |BOOL|)
(declare-const INT |POW Z|)
(assert (!
  (forall ((e |Z|)) (= (|set.in Z| e INT) (and (<= MININT e) (<= e MAXINT))))
  :named |ax.set.in.INT|))
(assert (!
  (forall ((s |POW Z|) (t |POW Z|))
    (=
      (= s t)
      (forall ((e |Z|)) (= (|set.in Z| e s) (|set.in Z| e t)))))
  :named |ax.set.eq Z|))
(declare-const BOOL |POW BOOL|)
(assert (!
  (forall ((e |BOOL|)) (|set.in BOOL| e BOOL))
  :named |ax.set.in.BOOL|))
(assert (!
  (forall ((s |POW BOOL|) (t |POW BOOL|))
    (=
      (= s t)
      (forall ((e |BOOL|)) (= (|set.in BOOL| e s) (|set.in BOOL| e t)))))
  :named |ax.set.eq BOOL|))
(assert (!
  (|set.in Z| s912 s670)
  :named |Local_Hyp:0|))
(assert (!
  (|set.in Z| s913 s670)
  :named |Local_Hyp:1|))
(assert (!
  (= s917 true)
  :named |Local_Hyp:6|))
(assert (!
  (|set.in Z| (- s918 s919) s669)
  :named |Local_Hyp:7|))
(assert (!
  (= s889 s148)
  :named |Local_Hyp:9|))
(assert (!
  (= s892 true)
  :named |Local_Hyp:10|))
(assert (!
  (= s893 false)
  :named |Local_Hyp:27|))
(assert (!
  (|set.in Z| (* s912 (- s918 s919)) s431)
  :named |Local_Hyp:12|))
(assert (!
  (|set.in Z| (* s913 (- s918 s919)) s431)
  :named |Local_Hyp:13|))
(assert (!
  (> (- s918 s919) 0)
  :named |Local_Hyp:28|))
(assert (!
  (not
  (and
    (= s889 s148)
    (= s892 true)
    (= s893 true)))
  :named |Local_Hyp:26|))
(assert (!
  (|set.in Z| s902$2 s429)
  :named |Local_Hyp:18|))
(assert (!
  (not
  (= s890 s148))
  :named |Local_Hyp:25|))
(assert (!
  (= s429 INT)
  :named |Define:ctx:349|))
(assert (!
  (= s431 INT)
  :named |Define:ctx:351|))
(assert (!
  (|set.in Z| s630 s431)
  :named |Define:ctx:680|))
(assert (!
  (= s669 INT)
  :named |Define:ctx:757|))
(assert (!
  (= s670 INT)
  :named |Define:ctx:758|))
(assert (!
  (|set.in Z| s907$1 s669)
  :named |Define:imext:0|))
(assert (!
  (|set.in Z| s908$1 s669)
  :named |Define:imext:1|))
(assert (!
  (|set.in Z| s909$1 s669)
  :named |Define:imext:2|))
(assert (!
  (|set.in Z| s903$1 s431)
  :named |Define:imext:3|))
(assert (!
  (|set.in Z| s904$1 s431)
  :named |Define:imext:4|))
(assert (!
  (|set.in Z| s910$1 s429)
  :named |Define:imext:5|))
(assert (!
  (|set.in Z| s901$1 s429)
  :named |Define:imext:6|))
(assert (!
  (|set.in Z| s902$1 s429)
  :named |Define:imext:7|))
(assert (!
  (|set.in Z| s897$1 s431)
  :named |Define:imext:8|))
(assert (!
  (|set.in Z| s898$1 s431)
  :named |Define:imext:9|))
(assert (!
  (|set.in Z| s899$1 s431)
  :named |Define:imext:10|))
(assert (!
  (|set.in Z| s900$1 s431)
  :named |Define:imext:11|))
(assert (!
  (|set.in BOOL| s892 s466)
  :named |Define:seext:7|))
(assert (!
  (|set.in BOOL| s893 s466)
  :named |Define:seext:8|))
(assert (!
  (|set.in Z| s897$1 s431)
  :named |Define:abs:0|))
(assert (!
  (|set.in Z| s898$1 s431)
  :named |Define:abs:1|))
(assert (!
  (|set.in Z| s899$1 s431)
  :named |Define:abs:2|))
(assert (!
  (|set.in Z| s900$1 s431)
  :named |Define:abs:3|))
(assert (!
  (|set.in Z| s901$1 s429)
  :named |Define:abs:4|))
(assert (!
  (|set.in Z| s902$1 s429)
  :named |Define:abs:5|))
(assert (!
  (|set.in Z| s903$1 s431)
  :named |Define:abs:6|))
(assert (!
  (|set.in Z| s904$1 s431)
  :named |Define:abs:7|))
(assert (!
  (= s466 BOOL)
  :named |Define:ctx:401|))
(assert (!
  (= s630 (- 131072000))
  :named |Define:ctx:681|))
(assert (!
  (|set.in BOOL| s905$1 s466)
  :named |Define:imext:12|))
(assert (!
  (|set.in BOOL| s906$1 s466)
  :named |Define:imext:13|))
(assert (!
  (|set.in BOOL| s885 s466)
  :named |Define:seext:0|))
(assert (!
  (|set.in BOOL| s886 s466)
  :named |Define:seext:1|))
(assert (!
  (|set.in BOOL| s887 s466)
  :named |Define:seext:2|))
(assert (!
  (|set.in BOOL| s888 s466)
  :named |Define:seext:3|))
(assert (!
  (|set.in BOOL| s894 s466)
  :named |Define:seext:9|))
(assert (!
  (|set.in BOOL| s895 s466)
  :named |Define:seext:10|))
(assert (!
  (|set.in BOOL| s896 s466)
  :named |Define:seext:11|))
(assert (!
  (|set.in BOOL| s905$1 s466)
  :named |Define:abs:8|))
(assert (!
  (|set.in BOOL| s906$1 s466)
  :named |Define:abs:9|))
(assert (!
  (= s903 s903$1)
  :named |Define:inv:0|))
(assert (!
  (= s904 s904$1)
  :named |Define:inv:1|))
(assert (!
  (= s901 s901$1)
  :named |Define:inv:2|))
(assert (!
  (= s902 s902$1)
  :named |Define:inv:3|))
(assert (!
  (= s897 s897$1)
  :named |Define:inv:4|))
(assert (!
  (= s898 s898$1)
  :named |Define:inv:5|))
(assert (!
  (= s899 s899$1)
  :named |Define:inv:6|))
(assert (!
  (= s900 s900$1)
  :named |Define:inv:7|))
(assert (!
  (= s905 s905$1)
  :named |Define:inv:8|))
(assert (!
  (= s906 s906$1)
  :named |Define:inv:9|))
(assert (!
  (not
    (|set.in Z| (+ (* s913 (- s918 s919)) s923) s431))
  :named |Goal|))
(check-sat)
(exit)
